NAME : traveling-santa-2018-prime-paths.31473.tour
COMMENT : Length = 31473
COMMENT : Found by LKH [Keld Helsgaun] Sun Jun 12 20:00:14 2022
TYPE : TOUR
DIMENSION : 100
TOUR_SECTION
1
32
9
21
50
52
92
82
74
54
7
89
14
99
4
70
86
65
6
71
72
12
2
96
26
25
78
29
37
24
48
87
75
94
15
35
49
40
57
73
3
63
62
68
91
23
11
30
85
8
44
88
90
55
19
34
18
64
60
98
46
36
67
59
16
41
27
81
38
22
76
80
53
95
45
28
5
17
100
97
77
56
66
31
51
39
20
42
84
58
33
13
69
83
43
10
93
61
47
79
-1
EOF
